p ocr 25 10 99
1 26
5 26
6 26
7 26
8 26
10 26
12 26
13 26
16 26
19 26
20 26
21 26
5 27
15 27
16 27
19 27
20 27
21 27
22 27
23 27
24 27
3 28
5 28
7 28
9 28
10 28
13 28
14 28
15 28
18 28
21 28
23 28
2 29
5 29
6 29
10 29
12 29
15 29
17 29
18 29
20 29
21 29
22 29
3 30
4 30
5 30
8 30
9 30
15 30
16 30
17 30
18 30
22 30
2 31
3 31
8 31
9 31
13 31
15 31
23 31
25 31
3 32
5 32
9 32
10 32
11 32
14 32
16 32
22 32
23 32
24 32
1 33
3 33
4 33
7 33
23 33
24 33
25 33
5 34
6 34
8 34
9 34
10 34
11 34
13 34
16 34
18 34
20 34
21 34
25 34
1 35
2 35
3 35
15 35
18 35
19 35
20 35
22 35
24 35